problems/csplib-prob056/sonet-models/noch/O2/lingeling/model_6_1-s3ring10-solution000001.solution
language Essence 1.3

letting network be
        mset({}, {}, {1, 2, 6, 8, 12}, {3, 4, 7, 8, 10}, {3, 5, 9, 11, 12}, {6, 10, 11, 13}, {7, 8, 9, 12, 13})
$ Here is a simple "visualisation" for the value above.
$ 
$ 
$  1  2  6  8 12
$  3  4  7  8 10
$  3  5  9 11 12
$  6 10 11 13
$  7  8  9 12 13

